************************************************************************
file with basedata            : mm53_.bas
initial value random generator: 638097787
************************************************************************
projects                      :  1
jobs (incl. supersource/sink ):  12
horizon                       :  67
RESOURCES
  - renewable                 :  2   R
  - nonrenewable              :  2   N
  - doubly constrained        :  0   D
************************************************************************
PROJECT INFORMATION:
pronr.  #jobs rel.date duedate tardcost  MPM-Time
    1     10      0       11        9       11
************************************************************************
PRECEDENCE RELATIONS:
jobnr.    #modes  #successors   successors
   1        1          3           2   3   4
   2        3          3           5   6   8
   3        3          2           5   9
   4        3          2           7  11
   5        3          1          10
   6        3          2           9  10
   7        3          1          10
   8        3          1           9
   9        3          1          12
  10        3          1          12
  11        3          1          12
  12        1          0        
************************************************************************
REQUESTS/DURATIONS:
jobnr. mode duration  R 1  R 2  N 1  N 2
------------------------------------------------------------------------
  1      1     0       0    0    0    0
  2      1     3       6    7   10    8
         2     5       6    7   10    7
         3     6       4    6   10    7
  3      1     3       7    2    6    3
         2     5       7    1    5    2
         3     6       6    1    4    2
  4      1     2       6    8   10    9
         2     6       5    7    9    9
         3     8       4    6    9    7
  5      1     5       4    5    9    7
         2     9       3    5    7    7
         3    10       2    5    4    6
  6      1     3       4   10    6    3
         2     3       4    9    7    3
         3     9       4    7    5    2
  7      1     1       4    7    6    8
         2     6       4    6    4    7
         3     8       4    1    2    5
  8      1     2       7    8   10    9
         2     4       7    8    8    8
         3     5       6    5    6    8
  9      1     2       4    9    5    8
         2     2       3   10    5    8
         3     4       2    6    5    7
 10      1     3       9    6    4    5
         2     3       9    5    7    8
         3     3       7    5    4    9
 11      1     1       5    6    4    6
         2     2       3    4    3    6
         3     8       2    2    3    6
 12      1     0       0    0    0    0
************************************************************************
RESOURCEAVAILABILITIES:
  R 1  R 2  N 1  N 2
   18   18   56   58
************************************************************************
MAXIMAL LAGS:
from  to  type  delay
    1   12   ES      0
    1    2   ES      0
    2   12   ES      0
    1    3   ES      0
    3   12   ES      0
    1    4   ES      0
    4   12   ES      0
    1    5   ES      0
    5   12   ES      0
    1    6   ES      0
    6   12   ES      0
    1    7   ES      0
    7   12   ES      0
    1    8   ES      0
    8   12   ES      0
    1    9   ES      0
    9   12   ES      0
    1   10   ES      0
   10   12   ES      0
    1   11   ES      0
   11   12   ES      0
    1   12   ES      0
    2    5   SS     -4
    2    5   SE     -7
    2    5   ES     -1
    2    5   EE      2
    2    6   SS     -6
    2    6   SE      8
    2    6   ES    -11
    2    6   EE      0
    2    8   SS      0
    2    8   SE     -8
    2    8   ES     -3
    2    8   EE      4
    3    5   SS    -10
    3    5   SE     -5
    3    5   ES     -7
    3    5   EE      8
    3    9   SS     -6
    3    9   SE     -2
    3    9   ES      9
    3    9   EE     11
    4    7   SS      2
    4    7   SE    -12
    4    7   ES      2
    4    7   EE    -10
    4   11   SS     -5
    4   11   SE      7
    4   11   ES      4
    4   11   EE     -3
    5   10   SS      5
    5   10   SE     -7
    5   10   ES     -8
    5   10   EE      5
    6    9   SS     -2
    6    9   SE    -11
    6    9   ES     -9
    6    9   EE      9
    6   10   SS    -10
    6   10   SE      1
    6   10   ES      4
    6   10   EE      5
    7   10   SS    -12
    7   10   SE      7
    7   10   ES     11
    7   10   EE     -7
    8    9   SS     11
    8    9   SE     -2
    8    9   ES     -1
    8    9   EE    -11
************************************************************************
